2
4
20
1 1.3 1.55 1.75 2.1
39 12 9 36 10 36 35 46 30 18 14 19 13 41 21 36 11 47 31 32 40 45 19 16 15 48 9 39 48 42 11 44 49 25 5 18 12 9 15 18 6 46 24 17 16 30 9 38 31 49 27 48 12 12 32 22 33 41 27 28 47 6 39 11 35 12 32 27 39 33 45 46 42 31 33 13 36 43 21 13 